Problem:    
Rows:       195
Columns:    69 (54 integer, 54 binary)
Non-zeros:  604
Status:     INTEGER OPTIMAL
Objective:  value = 4.495443 (MINimum)

   No.   Row name        Activity     Lower bound   Upper bound
------ ------------    ------------- ------------- -------------
     1 r.5                   4.49544             0               
     2 r.6                   4.49544        -998.7               
     3 r.7                    1004.5             0               
     4 r.8                  -995.505      -997.101               
     5 r.9                    1004.5             0               
     6 r.10                 -996.424      -999.026               
     7 r.11                  4.49544             0               
     8 r.12                 -996.973      -997.549               
     9 r.13                   1004.5             0               
    10 r.14                 -997.398       -999.13               
    11 r.15                  4.49544             0               
    12 r.16                  3.57626      -997.964               
    13 r.17                  4.49544             0               
    14 r.18                  1.73222      -999.532               
    15 r.19                   1004.5             0               
    16 r.20                 -998.403       -998.98               
    17 r.21                   1004.5             0               
    18 r.22                 -998.268      -998.931               
    19 r.23                  4.49544             0               
    20 r.24                 -997.269      -997.846               
    21 r.25                   1004.5             0               
    22 r.26                 -999.424      -999.424               
    23 r.27                  4.49544             0               
    24 r.28                   0.5764      -999.186               
    25 r.29                   1004.5             0               
    26 r.30                 -995.505      -999.081               
    27 r.31                  4.49544             0               
    28 r.32                  4.49544      -998.121               
    29 r.33                        1             1             = 
    30 r.34                        1             1             = 
    31 r.35                        1             1             = 
    32 r.36                        1             1             = 
    33 r.37                        1             1             = 
    34 r.38                        1             1             = 
    35 r.39                        1             1             = 
    36 r.40                     1001             2               
    37 r.41                    -1001         -1001               
    38 r.42                  1999.08      -999.026               
    39 r.43                     1001             2               
    40 r.44                    -1001         -1001               
    41 r.45                  998.532      -997.549               
    42 r.46                     1001             2               
    43 r.47                    -1001         -1001               
    44 r.48                  1998.11       -999.13               
    45 r.49                     1001             2               
    46 r.50                    -1001         -1001               
    47 r.51                  1999.08      -997.964               
    48 r.52                     1000             2               
    49 r.53                    -1000         -1001               
    50 r.54                  1997.24      -999.532               
    51 r.55                        2             2               
    52 r.56                       -2         -1001               
    53 r.57                 -2.89878       -998.98               
    54 r.58                     1001             2               
    55 r.59                    -1001         -1001               
    56 r.60                  1997.24      -998.931               
    57 r.61                     1001             2               
    58 r.62                    -1001         -1001               
    59 r.63                  998.235      -997.846               
    60 r.64                  3.91904        -998.7               
    61 r.65                 -996.081      -997.101               
    62 r.66                  3.91904        -998.7               
    63 r.67                 -996.081      -997.101               
    64 r.68                     1001             2               
    65 r.69                    -1001         -1001               
    66 r.70                     2000      -999.081               
    67 r.71                     1001             2               
    68 r.72                    -1001         -1001               
    69 r.73                     2000      -998.121               
    70 r.74                     1001             2               
    71 r.75                    -1001         -1001               
    72 r.76                  2000.92       1.30038               
    73 r.77                     1001             2               
    74 r.78                    -1001         -1001               
    75 r.79                  3001.47       2.89878               
    76 r.80                        2             2               
    77 r.81                       -2         -1001               
    78 r.82                -0.974425       -999.13               
    79 r.83                     1000             2               
    80 r.84                    -1000         -1001               
    81 r.85                  3000.55      -997.964               
    82 r.86                     1001             2               
    83 r.87                    -1001         -1001               
    84 r.88                  1998.16      -999.532               
    85 r.89                     1001             2               
    86 r.90                    -1001         -1001               
    87 r.91                  2998.57       -998.98               
    88 r.92                        2             2               
    89 r.93                       -2         -1001               
    90 r.94                 -1.84404      -998.931               
    91 r.95                     1000             2               
    92 r.96                    -1000         -1001               
    93 r.97                   1999.7      -997.846               
    94 r.98                     -997      -999.026               
    95 r.99                 -997.549      -997.549               
    96 r.100                    -997      -999.026               
    97 r.101                -997.549      -997.549               
    98 r.102                -999.081      -999.081               
    99 r.103                0.919181      -998.121               
   100 r.104                 1.46823      -999.081               
   101 r.105                 1001.47      -998.121               
   102 r.106                    1001             2               
   103 r.107                   -1001         -1001               
   104 r.108                 2001.89       1.30038               
   105 r.109                    1001             2               
   106 r.110                   -1001         -1001               
   107 r.111                 2000.92       2.89878               
   108 r.112                       2             2               
   109 r.113                      -2         -1001               
   110 r.114                0.974425      0.974425               
   111 r.115                    1000             2               
   112 r.116                   -1000         -1001               
   113 r.117                 999.451       2.45081               
   114 r.118                 -999.13       -999.13               
   115 r.119                 1.84404      -997.964               
   116 r.120                -998.995       -999.13               
   117 r.121                  1.9796      -997.964               
   118 r.122                       2             2               
   119 r.123                      -2         -1001               
   120 r.124               -0.869613      -998.931               
   121 r.125                    1000             2               
   122 r.126                   -1000         -1001               
   123 r.127                 999.155      -997.846               
   124 r.128                -997.975       -999.13               
   125 r.129                 2.99986      -997.964               
   126 r.130                -997.975       -999.13               
   127 r.131                 2.99986      -997.964               
   128 r.132                -998.106      -999.081               
   129 r.133                 1.89361      -998.121               
   130 r.134                -999.081      -999.081               
   131 r.135                0.919181      -998.121               
   132 r.136                    1000             2               
   133 r.137                   -1000         -1001               
   134 r.138                 2002.76       1.30038               
   135 r.139                       2             2               
   136 r.140                      -2         -1001               
   137 r.141                 2.89878       2.89878               
   138 r.142                    1001             2               
   139 r.143                   -1001         -1001               
   140 r.144                 2001.84      0.974425               
   141 r.145                    1001             2               
   142 r.146                   -1001         -1001               
   143 r.147                 1001.43       2.45081               
   144 r.148                    1001             2               
   145 r.149                   -1001         -1001               
   146 r.150                    2000      -998.931               
   147 r.151                    1001             2               
   148 r.152                   -1001         -1001               
   149 r.153                 1001.13      -997.846               
   150 r.154                 1.15582      -999.532               
   151 r.155                 -998.98       -998.98               
   152 r.156                 1.15582      -999.532               
   153 r.157                 -998.98       -998.98               
   154 r.158                -997.237      -999.081               
   155 r.159                 2.76322      -998.121               
   156 r.160                -997.101      -999.081               
   157 r.161                 2.89878      -998.121               
   158 r.162                    1001             2               
   159 r.163                   -1001         -1001               
   160 r.164                 2002.76       1.30038               
   161 r.165                    1001             2               
   162 r.166                   -1001         -1001               
   163 r.167                 3001.76       2.89878               
   164 r.168                       2             2               
   165 r.169                      -2         -1001               
   166 r.170                 1.84404      0.974425               
   167 r.171                    1000             2               
   168 r.172                   -1000         -1001               
   169 r.173                  2000.3       2.45081               
   170 r.174                       2             2               
   171 r.175                      -2         -1001               
   172 r.176                0.869613      0.869613               
   173 r.177                    1000             2               
   174 r.178                   -1000         -1001               
   175 r.179                 3000.85       2.03584               
   176 r.180                    1001             2               
   177 r.181                   -1001         -1001               
   178 r.182                    2000       0.46781               
   179 r.183                    1001             2               
   180 r.184                   -1001         -1001               
   181 r.185                 2998.87       1.02026               
   182 r.186                -998.844      -998.931               
   183 r.187                -997.846      -997.846               
   184 r.188                -998.844      -998.931               
   185 r.189                -997.846      -997.846               
   186 r.190                -997.237      -999.081               
   187 r.191                 2.76322      -998.121               
   188 r.192                 1.76467      -999.081               
   189 r.193                 1001.76      -998.121               
   190 r.194                    1001             2               
   191 r.195                   -1001         -1001               
   192 r.196                    2000       1.30038               
   193 r.197                    1001             2               
   194 r.198                   -1001         -1001               
   195 r.199                    2000       2.89878               

   No. Column name       Activity     Lower bound   Upper bound
------ ------------    ------------- ------------- -------------
     1 tt                    4.49544             0               
     2 s_1_1        *              0             0             1 
     3 t_1_1                       0             0               
     4 s_2_1        *              1             0             1 
     5 t_2_1                       0             0               
     6 s_1_2        *              1             0             1 
     7 t_1_2                0.919181             0               
     8 s_1_7        *              1             0             1 
     9 s_2_2        *              0             0             1 
    10 t_2_2                 1001.47             0               
    11 s_2_7        *              0             0             1 
    12 s_1_3        *              1             0             1 
    13 t_1_3                 1.89361             0               
    14 s_2_3        *              0             0             1 
    15 t_2_3                0.919181             0               
    16 s_1_4        *              0             0             1 
    17 t_1_4                 2.76322             0               
    18 s_2_4        *              1             0             1 
    19 t_2_4                 2.89878             0               
    20 s_1_5        *              1             0             1 
    21 t_1_5                 2.76322             0               
    22 s_2_5        *              0             0             1 
    23 t_2_5                 1001.76             0               
    24 s_1_6        *              1             0             1 
    25 t_1_6                 3.91904             0               
    26 s_2_6        *              0             0             1 
    27 t_2_6                 3.91904             0               
    28 t_1_7                       0             0               
    29 t_2_7                       0             0               
    30 r_1_1_2      *              1             0             1 
    31 u_1_1_2      *              0             0             1 
    32 r_2_1_2      *              1             0             1 
    33 u_2_1_2      *              0             0             1 
    34 r_1_1_3      *              1             0             1 
    35 u_1_1_3      *              0             0             1 
    36 r_2_1_3      *              1             0             1 
    37 u_2_1_3      *              0             0             1 
    38 r_1_1_4      *              1             0             1 
    39 u_1_1_4      *              0             0             1 
    40 r_2_1_4      *              0             0             1 
    41 u_2_1_4      *              0             0             1 
    42 r_1_1_5      *              1             0             1 
    43 u_1_1_5      *              0             0             1 
    44 r_2_1_5      *              1             0             1 
    45 u_2_1_5      *              0             0             1 
    46 r_1_1_7      *              1             0             1 
    47 u_1_1_7      *              0             0             1 
    48 r_2_1_7      *              1             0             1 
    49 u_2_1_7      *              0             0             1 
    50 r_1_2_3      *              0             0             1 
    51 u_1_2_3      *              0             0             1 
    52 r_2_2_3      *              1             0             1 
    53 u_2_2_3      *              0             0             1 
    54 r_1_2_4      *              1             0             1 
    55 u_1_2_4      *              0             0             1 
    56 r_2_2_4      *              1             0             1 
    57 u_2_2_4      *              0             0             1 
    58 r_1_2_5      *              0             0             1 
    59 u_1_2_5      *              0             0             1 
    60 r_2_2_5      *              1             0             1 
    61 u_2_2_5      *              0             0             1 
    62 r_1_3_5      *              0             0             1 
    63 u_1_3_5      *              0             0             1 
    64 r_2_3_5      *              1             0             1 
    65 u_2_3_5      *              0             0             1 
    66 r_1_4_5      *              1             0             1 
    67 u_1_4_5      *              0             0             1 
    68 r_2_4_5      *              1             0             1 
    69 u_2_4_5      *              0             0             1 

Integer feasibility conditions:

KKT.PE: max.abs.err = 4.55e-13 on row 175
        max.rel.err = 7.57e-17 on row 175
        High quality

KKT.PB: max.abs.err = 0.00e+00 on row 0
        max.rel.err = 0.00e+00 on row 0
        High quality

End of output
